NAME: instance_800
TYPE: TSP
DIMENSION: 20
EDGE_WEIGHT_TYPE: EUC_2D
NODE_COORD_SECTION
0 3.90 27.79
1 92.02 55.69
2 32.23 16.32
3 43.19 20.54
4 15.05 8.39
5 69.23 23.83
6 71.36 73.88
7 50.50 69.44
8 27.61 96.69
9 85.33 36.22
10 72.17 97.78
11 33.93 58.46
12 74.37 9.31
13 15.76 57.48
14 72.45 44.75
15 43.16 71.31
16 45.99 91.26
17 48.09 85.37
18 30.95 76.70
19 14.50 1.65
EOF
